# Solution for model mip_model
# Objective value = 16
q[0,0,0] 2
q[0,0,1] 0
q[0,0,2] 0
q[0,0,3] 0
q[0,0,4] 0
q[0,0,5] 0
q[0,0,6] 0
q[0,0,7] 0
q[0,0,8] 0
q[0,0,9] 0
q[0,1,0] 2
q[0,1,1] 0
q[0,1,2] 0
q[0,1,3] 0
q[0,1,4] 0
q[0,1,5] 0
q[0,1,6] 0
q[0,1,7] 0
q[0,1,8] 0
q[0,1,9] 0
q[1,0,0] 4
q[1,0,1] 0
q[1,0,2] 0
q[1,0,3] 0
q[1,0,4] 0
q[1,0,5] 0
q[1,0,6] 0
q[1,0,7] 0
q[1,0,8] 0
q[1,0,9] 0
q[1,1,0] 4
q[1,1,1] 2
q[1,1,2] 0
q[1,1,3] 0
q[1,1,4] 0
q[1,1,5] 0
q[1,1,6] 0
q[1,1,7] 0
q[1,1,8] 0
q[1,1,9] 0
c[0,0,0] 2
c[0,0,1] 0
c[0,0,2] 0
c[0,0,3] 0
c[0,0,4] 0
c[0,0,5] 0
c[0,0,6] 0
c[0,0,7] 0
c[0,0,8] 0
c[0,0,9] 0
c[0,1,0] 0
c[0,1,1] 0
c[0,1,2] 0
c[0,1,3] 0
c[0,1,4] 0
c[0,1,5] 0
c[0,1,6] 0
c[0,1,7] 0
c[0,1,8] 0
c[0,1,9] 0
c[1,0,0] 2
c[1,0,1] 0
c[1,0,2] 0
c[1,0,3] 0
c[1,0,4] 0
c[1,0,5] 0
c[1,0,6] 0
c[1,0,7] 0
c[1,0,8] 0
c[1,0,9] 0
c[1,1,0] 0
c[1,1,1] 0
c[1,1,2] 0
c[1,1,3] 0
c[1,1,4] 0
c[1,1,5] 0
c[1,1,6] 0
c[1,1,7] 0
c[1,1,8] 0
c[1,1,9] 0
